\ENCODING=ISO-8859-1
\Problem name: IloCplex

Minimize
 obj: 47.0106353759766 x_0_1 + 41.8807830810547 x_0_2 + 49.7393188476562 x_0_3
      + 62.6258735656738 x_0_4 + 64.4437713623047 x_0_5
      + 35.7770881652832 x_0_6 + 27.7848873138428 x_0_7 + 45 x_0_8
      + 37.1214218139648 x_0_9 + 33.5261077880859 x_0_10
      + 22.0227146148682 x_0_11 + 7.07106781005859 x_0_12
      + 30.8058433532715 x_0_13 + 49.0407981872559 x_0_14
      + 65.2533493041992 x_0_15 + 54.7083168029785 x_0_16
      + 63.9531059265137 x_0_17 + 22.0227146148682 x_0_18
      + 43.9317665100098 x_0_19 + 50.2493782043457 x_0_20
      + 60.7289047241211 x_0_21 + 80.7217407226562 x_0_22
      + 15.2315464019775 x_1_2 + 18.4390888214111 x_1_3 + 78.025634765625 x_1_4
      + 77.2334136962891 x_1_5 + 13.9283885955811 x_1_6
      + 57.7754287719727 x_1_7 + 65.7647323608398 x_1_8 + 46.173583984375 x_1_9
      + 39.319206237793 x_1_10 + 33.5410194396973 x_1_11
      + 41.0365676879883 x_1_12 + 36.6742401123047 x_1_13
      + 43.8292121887207 x_1_14 + 39.4461669921875 x_1_15
      + 30.4795017242432 x_1_16 + 58.8217658996582 x_1_17
      + 65.3069686889648 x_1_18 + 82.4621124267578 x_1_19
      + 71.4492797851562 x_1_20 + 102.92716217041 x_1_21
      + 96.1353225708008 x_1_22 + 8.24621105194092 x_2_3
      + 85.5102310180664 x_2_4 + 85.3756408691406 x_2_5 + 21.023796081543 x_2_6
      + 59.6824951171875 x_2_7 + 71.1125869750977 x_2_8 + 52.952808380127 x_2_9
      + 45.8911743164062 x_2_10 + 36.0138854980469 x_2_11
      + 37.576587677002 x_2_12 + 42.5793380737305 x_2_13
      + 28.65309715271 x_2_14 + 28.6356430053711 x_2_15
      + 18.0277557373047 x_2_16 + 44.0454292297363 x_2_17
      + 56.4003562927246 x_2_18 + 70.9365921020508 x_2_19
      + 57.0350761413574 x_2_20 + 101.636604309082 x_2_21
      + 80.9567794799805 x_2_22 + 93.0591201782227 x_3_4
      + 92.7631378173828 x_3_5 + 27.892650604248 x_3_6 + 67.8969802856445 x_3_7
      + 79.0253143310547 x_3_8 + 60.5309829711914 x_3_9
      + 53.4602661132812 x_3_10 + 44.1021537780762 x_3_11
      + 45.694637298584 x_3_12 + 50.2493782043457 x_3_13
      + 27.658634185791 x_3_14 + 21.5406589508057 x_3_15
      + 12.0415945053101 x_3_16 + 41.1825218200684 x_3_17
      + 63.03173828125 x_3_18 + 76.0263137817383 x_3_19
      + 59.3042984008789 x_3_20 + 109.772491455078 x_3_21
      + 80.8084182739258 x_3_22 + 4.12310552597046 x_4_5
      + 65.3758392333984 x_4_6 + 35.355339050293 x_4_7 + 17.6918067932129 x_4_8
      + 32.5576400756836 x_4_9 + 39.6232261657715 x_4_10
      + 50.9215087890625 x_4_11 + 59.3632888793945 x_4_12
      + 42.9534645080566 x_4_13 + 106.230880737305 x_4_14
      + 114.140266418457 x_4_15 + 103.368270874023 x_4_16
      + 122.653984069824 x_4_17 + 78.8733139038086 x_4_18
      + 100.439033508301 x_4_19 + 112.805145263672 x_4_20
      + 57.7061538696289 x_4_21 + 143.282943725586 x_4_22
      + 64.9384307861328 x_5_6 + 37.6430587768555 x_5_7 + 20 x_5_8
      + 32.5729942321777 x_5_9 + 39.5600814819336 x_5_10
      + 51.4781494140625 x_5_11 + 60.8029594421387 x_5_12
      + 43.0116271972656 x_5_13 + 106.929885864258 x_5_14
      + 114.004386901855 x_5_15 + 103.324729919434 x_5_16
      + 123.43824005127 x_5_17 + 81.4002456665039 x_5_18
      + 103.174606323242 x_5_19 + 114.690887451172 x_5_20
      + 61.8142395019531 x_5_21 + 145.165420532227 x_5_22
      + 43.8634262084961 x_6_7 + 52.2398300170898 x_6_8
      + 33.0151481628418 x_6_9 + 26 x_6_10 + 19.7230834960938 x_6_11
      + 29.1547603607178 x_6_12 + 23.0867919921875 x_6_13
      + 47.3814315795898 x_6_14 + 49.3355865478516 x_6_15 + 39 x_6_16
      + 63.7024345397949 x_6_17 + 56.0446243286133 x_6_18
      + 75.3259582519531 x_6_19 + 69.2603759765625 x_6_20
      + 89.3084564208984 x_6_21 + 96.6022796630859 x_6_22
      + 17.6918067932129 x_7_8 + 20.2484569549561 x_7_9
      + 22.8035087585449 x_7_10 + 24.3515911102295 x_7_11
      + 25.9615097045898 x_7_12 + 23.345235824585 x_7_13
      + 74.7328567504883 x_7_14 + 87.0517120361328 x_7_15
      + 76.0591888427734 x_7_16 + 90.5207138061523 x_7_17
      + 43.8292121887207 x_7_18 + 65.8634948730469 x_7_19
      + 77.6208724975586 x_7_20 + 46.6904716491699 x_7_21
      + 108.07405090332 x_7_22 + 19.9248580932617 x_8_9
      + 26.4764041900635 x_8_10 + 35.355339050293 x_8_11
      + 42.0594825744629 x_8_12 + 29.1547603607178 x_8_13
      + 89.8109130859375 x_8_14 + 99.5037689208984 x_8_15
      + 88.5663604736328 x_8_16 + 106.042442321777 x_8_17
      + 61.4003257751465 x_8_18 + 83.2165832519531 x_8_19
      + 95.1314849853516 x_8_20 + 50.0899200439453 x_8_21
      + 125.60652923584 x_8_22 + 7.07106781005859 x_9_10
      + 19.4164886474609 x_9_11 + 31.6227760314941 x_9_12
      + 10.4403066635132 x_9_13 + 74.7060928344727 x_9_14
      + 81.5843124389648 x_9_15 + 70.8307876586914 x_9_16
      + 91.3016967773438 x_9_17 + 57.8705444335938 x_9_18
      + 80.3243408203125 x_9_19 + 86.0523071289062 x_9_20
      + 65.4369888305664 x_9_21 + 116.180892944336 x_9_22
      + 13.4536237716675 x_10_11 + 27.3129997253418 x_10_12
      + 3.60555124282837 x_10_13 + 68.0955200195312 x_10_14
      + 74.5251617431641 x_10_15 + 63.7887153625488 x_10_16
      + 84.7230758666992 x_10_17 + 55.1089820861816 x_10_18
      + 77.3692474365234 x_10_19 + 81.0246887207031 x_10_20
      + 69.3108901977539 x_10_21 + 110.887329101562 x_10_22
      + 15.1327457427979 x_11_12 + 10 x_11_13 + 55.4616966247559 x_11_14
      + 64.1950149536133 x_11_15 + 53.2353248596191 x_11_16
      + 72.0069427490234 x_11_17 + 44.0454292297363 x_11_18
      + 65.7647323608398 x_11_19 + 67.6756973266602 x_11_20
      + 69.6347579956055 x_11_21 + 97.4525527954102 x_11_22
      + 24.3515911102295 x_12_13 + 48.8364601135254 x_12_14
      + 62.8012733459473 x_12_15 + 51.9711456298828 x_12_16
      + 64.5600509643555 x_12_17 + 29 x_12_18 + 50.6359558105469 x_12_19
      + 54.5618896484375 x_12_20 + 64.0780792236328 x_12_21
      + 84.8646011352539 x_12_22 + 64.4980621337891 x_13_14
      + 71.196907043457 x_13_15 + 60.4152297973633 x_13_16
      + 81.1233596801758 x_13_17 + 52.6117858886719 x_13_18
      + 74.7328567504883 x_13_19 + 77.6659545898438 x_13_20
      + 70.0357055664062 x_13_21 + 107.447662353516 x_13_22
      + 23.6008472442627 x_14_15 + 19.2353839874268 x_14_16
      + 16.6433162689209 x_14_17 + 52 x_14_18 + 57.2800140380859 x_14_19
      + 34.1760139465332 x_14_20 + 108.189651489258 x_14_21
      + 53.1507301330566 x_14_22 + 11 x_15_16 + 28 x_15_17
      + 73.2461624145508 x_15_18 + 80.7217407226562 x_15_19
      + 57.2450866699219 x_15_20 + 125.960311889648 x_15_21
      + 71.0633544921875 x_15_22 + 30.0832176208496 x_16_17
      + 64.2028045654297 x_16_18 + 73.8173446655273 x_16_19
      + 53.1601371765137 x_16_20 + 115.433967590332 x_16_21
      + 71.4492797851562 x_16_22 + 62.9682464599609 x_17_18
      + 62.7694206237793 x_17_19 + 34.7131080627441 x_17_20
      + 121.202308654785 x_17_21 + 43.1045227050781 x_17_22
      + 22.472204208374 x_18_19 + 37.9473304748535 x_18_20
      + 59.1354370117188 x_18_21 + 67.1192932128906 x_18_22
      + 29.4108829498291 x_19_20 + 71.5122375488281 x_19_21
      + 52.1727905273438 x_19_22 + 96.3379440307617 x_20_21
      + 30.4795017242432 x_20_22 + 123.369361877441 x_21_22
Subject To
 c1:       x_0_1 + x_0_2 + x_0_3 + x_0_4 + x_0_5 + x_0_6 + x_0_7 + x_0_8
           + x_0_9 + x_0_10 + x_0_11 + x_0_12 + x_0_13 + x_0_14 + x_0_15
           + x_0_16 + x_0_17 + x_0_18 + x_0_19 + x_0_20 + x_0_21 + x_0_22 <= 6
 CstDeg1:  x_0_1 + x_1_2 + x_1_3 + x_1_4 + x_1_5 + x_1_6 + x_1_7 + x_1_8
           + x_1_9 + x_1_10 + x_1_11 + x_1_12 + x_1_13 + x_1_14 + x_1_15
           + x_1_16 + x_1_17 + x_1_18 + x_1_19 + x_1_20 + x_1_21 + x_1_22  = 2
 CstDeg2:  x_0_2 + x_1_2 + x_2_3 + x_2_4 + x_2_5 + x_2_6 + x_2_7 + x_2_8
           + x_2_9 + x_2_10 + x_2_11 + x_2_12 + x_2_13 + x_2_14 + x_2_15
           + x_2_16 + x_2_17 + x_2_18 + x_2_19 + x_2_20 + x_2_21 + x_2_22  = 2
 CstDeg3:  x_0_3 + x_1_3 + x_2_3 + x_3_4 + x_3_5 + x_3_6 + x_3_7 + x_3_8
           + x_3_9 + x_3_10 + x_3_11 + x_3_12 + x_3_13 + x_3_14 + x_3_15
           + x_3_16 + x_3_17 + x_3_18 + x_3_19 + x_3_20 + x_3_21 + x_3_22  = 2
 CstDeg4:  x_0_4 + x_1_4 + x_2_4 + x_3_4 + x_4_5 + x_4_6 + x_4_7 + x_4_8
           + x_4_9 + x_4_10 + x_4_11 + x_4_12 + x_4_13 + x_4_14 + x_4_15
           + x_4_16 + x_4_17 + x_4_18 + x_4_19 + x_4_20 + x_4_21 + x_4_22  = 2
 CstDeg5:  x_0_5 + x_1_5 + x_2_5 + x_3_5 + x_4_5 + x_5_6 + x_5_7 + x_5_8
           + x_5_9 + x_5_10 + x_5_11 + x_5_12 + x_5_13 + x_5_14 + x_5_15
           + x_5_16 + x_5_17 + x_5_18 + x_5_19 + x_5_20 + x_5_21 + x_5_22  = 2
 CstDeg6:  x_0_6 + x_1_6 + x_2_6 + x_3_6 + x_4_6 + x_5_6 + x_6_7 + x_6_8
           + x_6_9 + x_6_10 + x_6_11 + x_6_12 + x_6_13 + x_6_14 + x_6_15
           + x_6_16 + x_6_17 + x_6_18 + x_6_19 + x_6_20 + x_6_21 + x_6_22  = 2
 CstDeg7:  x_0_7 + x_1_7 + x_2_7 + x_3_7 + x_4_7 + x_5_7 + x_6_7 + x_7_8
           + x_7_9 + x_7_10 + x_7_11 + x_7_12 + x_7_13 + x_7_14 + x_7_15
           + x_7_16 + x_7_17 + x_7_18 + x_7_19 + x_7_20 + x_7_21 + x_7_22  = 2
 CstDeg8:  x_0_8 + x_1_8 + x_2_8 + x_3_8 + x_4_8 + x_5_8 + x_6_8 + x_7_8
           + x_8_9 + x_8_10 + x_8_11 + x_8_12 + x_8_13 + x_8_14 + x_8_15
           + x_8_16 + x_8_17 + x_8_18 + x_8_19 + x_8_20 + x_8_21 + x_8_22  = 2
 CstDeg9:  x_0_9 + x_1_9 + x_2_9 + x_3_9 + x_4_9 + x_5_9 + x_6_9 + x_7_9
           + x_8_9 + x_9_10 + x_9_11 + x_9_12 + x_9_13 + x_9_14 + x_9_15
           + x_9_16 + x_9_17 + x_9_18 + x_9_19 + x_9_20 + x_9_21 + x_9_22  = 2
 CstDeg10: x_0_10 + x_1_10 + x_2_10 + x_3_10 + x_4_10 + x_5_10 + x_6_10
           + x_7_10 + x_8_10 + x_9_10 + x_10_11 + x_10_12 + x_10_13 + x_10_14
           + x_10_15 + x_10_16 + x_10_17 + x_10_18 + x_10_19 + x_10_20
           + x_10_21 + x_10_22  = 2
 CstDeg11: x_0_11 + x_1_11 + x_2_11 + x_3_11 + x_4_11 + x_5_11 + x_6_11
           + x_7_11 + x_8_11 + x_9_11 + x_10_11 + x_11_12 + x_11_13 + x_11_14
           + x_11_15 + x_11_16 + x_11_17 + x_11_18 + x_11_19 + x_11_20
           + x_11_21 + x_11_22  = 2
 CstDeg12: x_0_12 + x_1_12 + x_2_12 + x_3_12 + x_4_12 + x_5_12 + x_6_12
           + x_7_12 + x_8_12 + x_9_12 + x_10_12 + x_11_12 + x_12_13 + x_12_14
           + x_12_15 + x_12_16 + x_12_17 + x_12_18 + x_12_19 + x_12_20
           + x_12_21 + x_12_22  = 2
 CstDeg13: x_0_13 + x_1_13 + x_2_13 + x_3_13 + x_4_13 + x_5_13 + x_6_13
           + x_7_13 + x_8_13 + x_9_13 + x_10_13 + x_11_13 + x_12_13 + x_13_14
           + x_13_15 + x_13_16 + x_13_17 + x_13_18 + x_13_19 + x_13_20
           + x_13_21 + x_13_22  = 2
 CstDeg14: x_0_14 + x_1_14 + x_2_14 + x_3_14 + x_4_14 + x_5_14 + x_6_14
           + x_7_14 + x_8_14 + x_9_14 + x_10_14 + x_11_14 + x_12_14 + x_13_14
           + x_14_15 + x_14_16 + x_14_17 + x_14_18 + x_14_19 + x_14_20
           + x_14_21 + x_14_22  = 2
 CstDeg15: x_0_15 + x_1_15 + x_2_15 + x_3_15 + x_4_15 + x_5_15 + x_6_15
           + x_7_15 + x_8_15 + x_9_15 + x_10_15 + x_11_15 + x_12_15 + x_13_15
           + x_14_15 + x_15_16 + x_15_17 + x_15_18 + x_15_19 + x_15_20
           + x_15_21 + x_15_22  = 2
 CstDeg16: x_0_16 + x_1_16 + x_2_16 + x_3_16 + x_4_16 + x_5_16 + x_6_16
           + x_7_16 + x_8_16 + x_9_16 + x_10_16 + x_11_16 + x_12_16 + x_13_16
           + x_14_16 + x_15_16 + x_16_17 + x_16_18 + x_16_19 + x_16_20
           + x_16_21 + x_16_22  = 2
 CstDeg17: x_0_17 + x_1_17 + x_2_17 + x_3_17 + x_4_17 + x_5_17 + x_6_17
           + x_7_17 + x_8_17 + x_9_17 + x_10_17 + x_11_17 + x_12_17 + x_13_17
           + x_14_17 + x_15_17 + x_16_17 + x_17_18 + x_17_19 + x_17_20
           + x_17_21 + x_17_22  = 2
 CstDeg18: x_0_18 + x_1_18 + x_2_18 + x_3_18 + x_4_18 + x_5_18 + x_6_18
           + x_7_18 + x_8_18 + x_9_18 + x_10_18 + x_11_18 + x_12_18 + x_13_18
           + x_14_18 + x_15_18 + x_16_18 + x_17_18 + x_18_19 + x_18_20
           + x_18_21 + x_18_22  = 2
 CstDeg19: x_0_19 + x_1_19 + x_2_19 + x_3_19 + x_4_19 + x_5_19 + x_6_19
           + x_7_19 + x_8_19 + x_9_19 + x_10_19 + x_11_19 + x_12_19 + x_13_19
           + x_14_19 + x_15_19 + x_16_19 + x_17_19 + x_18_19 + x_19_20
           + x_19_21 + x_19_22  = 2
 CstDeg20: x_0_20 + x_1_20 + x_2_20 + x_3_20 + x_4_20 + x_5_20 + x_6_20
           + x_7_20 + x_8_20 + x_9_20 + x_10_20 + x_11_20 + x_12_20 + x_13_20
           + x_14_20 + x_15_20 + x_16_20 + x_17_20 + x_18_20 + x_19_20
           + x_20_21 + x_20_22  = 2
 CstDeg21: x_0_21 + x_1_21 + x_2_21 + x_3_21 + x_4_21 + x_5_21 + x_6_21
           + x_7_21 + x_8_21 + x_9_21 + x_10_21 + x_11_21 + x_12_21 + x_13_21
           + x_14_21 + x_15_21 + x_16_21 + x_17_21 + x_18_21 + x_19_21
           + x_20_21 + x_21_22  = 2
 CstDeg22: x_0_22 + x_1_22 + x_2_22 + x_3_22 + x_4_22 + x_5_22 + x_6_22
           + x_7_22 + x_8_22 + x_9_22 + x_10_22 + x_11_22 + x_12_22 + x_13_22
           + x_14_22 + x_15_22 + x_16_22 + x_17_22 + x_18_22 + x_19_22
           + x_20_22 + x_21_22  = 2
Bounds
 0 <= x_0_1 <= 2
 0 <= x_0_2 <= 2
 0 <= x_0_3 <= 2
 0 <= x_0_4 <= 2
 0 <= x_0_5 <= 2
 0 <= x_0_6 <= 2
 0 <= x_0_7 <= 2
 0 <= x_0_8 <= 2
 0 <= x_0_9 <= 2
 0 <= x_0_10 <= 2
 0 <= x_0_11 <= 2
 0 <= x_0_12 <= 2
 0 <= x_0_13 <= 2
 0 <= x_0_14 <= 2
 0 <= x_0_15 <= 2
 0 <= x_0_16 <= 2
 0 <= x_0_17 <= 2
 0 <= x_0_18 <= 2
 0 <= x_0_19 <= 2
 0 <= x_0_20 <= 2
 0 <= x_0_21 <= 2
 0 <= x_0_22 <= 2
 0 <= x_1_2 <= 1
 0 <= x_1_3 <= 1
 0 <= x_1_4 <= 1
 0 <= x_1_5 <= 1
 0 <= x_1_6 <= 1
 0 <= x_1_7 <= 1
 0 <= x_1_8 <= 1
 0 <= x_1_9 <= 1
 0 <= x_1_10 <= 1
 0 <= x_1_11 <= 1
 0 <= x_1_12 <= 1
 0 <= x_1_13 <= 1
 0 <= x_1_14 <= 1
 0 <= x_1_15 <= 1
 0 <= x_1_16 <= 1
 0 <= x_1_17 <= 1
 0 <= x_1_18 <= 1
 0 <= x_1_19 <= 1
 0 <= x_1_20 <= 1
 0 <= x_1_21 <= 1
 0 <= x_1_22 <= 1
 0 <= x_2_3 <= 1
 0 <= x_2_4 <= 1
 0 <= x_2_5 <= 1
 0 <= x_2_6 <= 1
 0 <= x_2_7 <= 1
 0 <= x_2_8 <= 1
 0 <= x_2_9 <= 1
 0 <= x_2_10 <= 1
 0 <= x_2_11 <= 1
 0 <= x_2_12 <= 1
 0 <= x_2_13 <= 1
 0 <= x_2_14 <= 1
 0 <= x_2_15 <= 1
 0 <= x_2_16 <= 1
 0 <= x_2_17 <= 1
 0 <= x_2_18 <= 1
 0 <= x_2_19 <= 1
 0 <= x_2_20 <= 1
 0 <= x_2_21 <= 1
 0 <= x_2_22 <= 1
 0 <= x_3_4 <= 1
 0 <= x_3_5 <= 1
 0 <= x_3_6 <= 1
 0 <= x_3_7 <= 1
 0 <= x_3_8 <= 1
 0 <= x_3_9 <= 1
 0 <= x_3_10 <= 1
 0 <= x_3_11 <= 1
 0 <= x_3_12 <= 1
 0 <= x_3_13 <= 1
 0 <= x_3_14 <= 1
 0 <= x_3_15 <= 1
 0 <= x_3_16 <= 1
 0 <= x_3_17 <= 1
 0 <= x_3_18 <= 1
 0 <= x_3_19 <= 1
 0 <= x_3_20 <= 1
 0 <= x_3_21 <= 1
 0 <= x_3_22 <= 1
 0 <= x_4_5 <= 1
 0 <= x_4_6 <= 1
 0 <= x_4_7 <= 1
 0 <= x_4_8 <= 1
 0 <= x_4_9 <= 1
 0 <= x_4_10 <= 1
 0 <= x_4_11 <= 1
 0 <= x_4_12 <= 1
 0 <= x_4_13 <= 1
 0 <= x_4_14 <= 1
 0 <= x_4_15 <= 1
 0 <= x_4_16 <= 1
 0 <= x_4_17 <= 1
 0 <= x_4_18 <= 1
 0 <= x_4_19 <= 1
 0 <= x_4_20 <= 1
 0 <= x_4_21 <= 1
 0 <= x_4_22 <= 1
 0 <= x_5_6 <= 1
 0 <= x_5_7 <= 1
 0 <= x_5_8 <= 1
 0 <= x_5_9 <= 1
 0 <= x_5_10 <= 1
 0 <= x_5_11 <= 1
 0 <= x_5_12 <= 1
 0 <= x_5_13 <= 1
 0 <= x_5_14 <= 1
 0 <= x_5_15 <= 1
 0 <= x_5_16 <= 1
 0 <= x_5_17 <= 1
 0 <= x_5_18 <= 1
 0 <= x_5_19 <= 1
 0 <= x_5_20 <= 1
 0 <= x_5_21 <= 1
 0 <= x_5_22 <= 1
 0 <= x_6_7 <= 1
 0 <= x_6_8 <= 1
 0 <= x_6_9 <= 1
 0 <= x_6_10 <= 1
 0 <= x_6_11 <= 1
 0 <= x_6_12 <= 1
 0 <= x_6_13 <= 1
 0 <= x_6_14 <= 1
 0 <= x_6_15 <= 1
 0 <= x_6_16 <= 1
 0 <= x_6_17 <= 1
 0 <= x_6_18 <= 1
 0 <= x_6_19 <= 1
 0 <= x_6_20 <= 1
 0 <= x_6_21 <= 1
 0 <= x_6_22 <= 1
 0 <= x_7_8 <= 1
 0 <= x_7_9 <= 1
 0 <= x_7_10 <= 1
 0 <= x_7_11 <= 1
 0 <= x_7_12 <= 1
 0 <= x_7_13 <= 1
 0 <= x_7_14 <= 1
 0 <= x_7_15 <= 1
 0 <= x_7_16 <= 1
 0 <= x_7_17 <= 1
 0 <= x_7_18 <= 1
 0 <= x_7_19 <= 1
 0 <= x_7_20 <= 1
 0 <= x_7_21 <= 1
 0 <= x_7_22 <= 1
 0 <= x_8_9 <= 1
 0 <= x_8_10 <= 1
 0 <= x_8_11 <= 1
 0 <= x_8_12 <= 1
 0 <= x_8_13 <= 1
 0 <= x_8_14 <= 1
 0 <= x_8_15 <= 1
 0 <= x_8_16 <= 1
 0 <= x_8_17 <= 1
 0 <= x_8_18 <= 1
 0 <= x_8_19 <= 1
 0 <= x_8_20 <= 1
 0 <= x_8_21 <= 1
 0 <= x_8_22 <= 1
 0 <= x_9_10 <= 1
 0 <= x_9_11 <= 1
 0 <= x_9_12 <= 1
 0 <= x_9_13 <= 1
 0 <= x_9_14 <= 1
 0 <= x_9_15 <= 1
 0 <= x_9_16 <= 1
 0 <= x_9_17 <= 1
 0 <= x_9_18 <= 1
 0 <= x_9_19 <= 1
 0 <= x_9_20 <= 1
 0 <= x_9_21 <= 1
 0 <= x_9_22 <= 1
 0 <= x_10_11 <= 1
 0 <= x_10_12 <= 1
 0 <= x_10_13 <= 1
 0 <= x_10_14 <= 1
 0 <= x_10_15 <= 1
 0 <= x_10_16 <= 1
 0 <= x_10_17 <= 1
 0 <= x_10_18 <= 1
 0 <= x_10_19 <= 1
 0 <= x_10_20 <= 1
 0 <= x_10_21 <= 1
 0 <= x_10_22 <= 1
 0 <= x_11_12 <= 1
 0 <= x_11_13 <= 1
 0 <= x_11_14 <= 1
 0 <= x_11_15 <= 1
 0 <= x_11_16 <= 1
 0 <= x_11_17 <= 1
 0 <= x_11_18 <= 1
 0 <= x_11_19 <= 1
 0 <= x_11_20 <= 1
 0 <= x_11_21 <= 1
 0 <= x_11_22 <= 1
 0 <= x_12_13 <= 1
 0 <= x_12_14 <= 1
 0 <= x_12_15 <= 1
 0 <= x_12_16 <= 1
 0 <= x_12_17 <= 1
 0 <= x_12_18 <= 1
 0 <= x_12_19 <= 1
 0 <= x_12_20 <= 1
 0 <= x_12_21 <= 1
 0 <= x_12_22 <= 1
 0 <= x_13_14 <= 1
 0 <= x_13_15 <= 1
 0 <= x_13_16 <= 1
 0 <= x_13_17 <= 1
 0 <= x_13_18 <= 1
 0 <= x_13_19 <= 1
 0 <= x_13_20 <= 1
 0 <= x_13_21 <= 1
 0 <= x_13_22 <= 1
 0 <= x_14_15 <= 1
 0 <= x_14_16 <= 1
 0 <= x_14_17 <= 1
 0 <= x_14_18 <= 1
 0 <= x_14_19 <= 1
 0 <= x_14_20 <= 1
 0 <= x_14_21 <= 1
 0 <= x_14_22 <= 1
 0 <= x_15_16 <= 1
 0 <= x_15_17 <= 1
 0 <= x_15_18 <= 1
 0 <= x_15_19 <= 1
 0 <= x_15_20 <= 1
 0 <= x_15_21 <= 1
 0 <= x_15_22 <= 1
 0 <= x_16_17 <= 1
 0 <= x_16_18 <= 1
 0 <= x_16_19 <= 1
 0 <= x_16_20 <= 1
 0 <= x_16_21 <= 1
 0 <= x_16_22 <= 1
 0 <= x_17_18 <= 1
 0 <= x_17_19 <= 1
 0 <= x_17_20 <= 1
 0 <= x_17_21 <= 1
 0 <= x_17_22 <= 1
 0 <= x_18_19 <= 1
 0 <= x_18_20 <= 1
 0 <= x_18_21 <= 1
 0 <= x_18_22 <= 1
 0 <= x_19_20 <= 1
 0 <= x_19_21 <= 1
 0 <= x_19_22 <= 1
 0 <= x_20_21 <= 1
 0 <= x_20_22 <= 1
 0 <= x_21_22 <= 1
Binaries
 x_1_2  x_1_3  x_1_4  x_1_5  x_1_6  x_1_7  x_1_8  x_1_9  x_1_10  x_1_11 
 x_1_12  x_1_13  x_1_14  x_1_15  x_1_16  x_1_17  x_1_18  x_1_19  x_1_20 
 x_1_21  x_1_22  x_2_3  x_2_4  x_2_5  x_2_6  x_2_7  x_2_8  x_2_9  x_2_10 
 x_2_11  x_2_12  x_2_13  x_2_14  x_2_15  x_2_16  x_2_17  x_2_18  x_2_19 
 x_2_20  x_2_21  x_2_22  x_3_4  x_3_5  x_3_6  x_3_7  x_3_8  x_3_9  x_3_10 
 x_3_11  x_3_12  x_3_13  x_3_14  x_3_15  x_3_16  x_3_17  x_3_18  x_3_19 
 x_3_20  x_3_21  x_3_22  x_4_5  x_4_6  x_4_7  x_4_8  x_4_9  x_4_10  x_4_11 
 x_4_12  x_4_13  x_4_14  x_4_15  x_4_16  x_4_17  x_4_18  x_4_19  x_4_20 
 x_4_21  x_4_22  x_5_6  x_5_7  x_5_8  x_5_9  x_5_10  x_5_11  x_5_12  x_5_13 
 x_5_14  x_5_15  x_5_16  x_5_17  x_5_18  x_5_19  x_5_20  x_5_21  x_5_22  x_6_7 
 x_6_8  x_6_9  x_6_10  x_6_11  x_6_12  x_6_13  x_6_14  x_6_15  x_6_16  x_6_17 
 x_6_18  x_6_19  x_6_20  x_6_21  x_6_22  x_7_8  x_7_9  x_7_10  x_7_11  x_7_12 
 x_7_13  x_7_14  x_7_15  x_7_16  x_7_17  x_7_18  x_7_19  x_7_20  x_7_21 
 x_7_22  x_8_9  x_8_10  x_8_11  x_8_12  x_8_13  x_8_14  x_8_15  x_8_16  x_8_17 
 x_8_18  x_8_19  x_8_20  x_8_21  x_8_22  x_9_10  x_9_11  x_9_12  x_9_13 
 x_9_14  x_9_15  x_9_16  x_9_17  x_9_18  x_9_19  x_9_20  x_9_21  x_9_22 
 x_10_11  x_10_12  x_10_13  x_10_14  x_10_15  x_10_16  x_10_17  x_10_18 
 x_10_19  x_10_20  x_10_21  x_10_22  x_11_12  x_11_13  x_11_14  x_11_15 
 x_11_16  x_11_17  x_11_18  x_11_19  x_11_20  x_11_21  x_11_22  x_12_13 
 x_12_14  x_12_15  x_12_16  x_12_17  x_12_18  x_12_19  x_12_20  x_12_21 
 x_12_22  x_13_14  x_13_15  x_13_16  x_13_17  x_13_18  x_13_19  x_13_20 
 x_13_21  x_13_22  x_14_15  x_14_16  x_14_17  x_14_18  x_14_19  x_14_20 
 x_14_21  x_14_22  x_15_16  x_15_17  x_15_18  x_15_19  x_15_20  x_15_21 
 x_15_22  x_16_17  x_16_18  x_16_19  x_16_20  x_16_21  x_16_22  x_17_18 
 x_17_19  x_17_20  x_17_21  x_17_22  x_18_19  x_18_20  x_18_21  x_18_22 
 x_19_20  x_19_21  x_19_22  x_20_21  x_20_22  x_21_22 
Generals
 x_0_1  x_0_2  x_0_3  x_0_4  x_0_5  x_0_6  x_0_7  x_0_8  x_0_9  x_0_10  x_0_11 
 x_0_12  x_0_13  x_0_14  x_0_15  x_0_16  x_0_17  x_0_18  x_0_19  x_0_20 
 x_0_21  x_0_22 
End
